n_boats=39;
n_periods=7;
capacity=[10,10,10,10,10,8,8,8,12,8,8,8,8,8,8,7,7,7,7,7,7,6,6,6,6,6,6,6,6,6,6,9,6,8,12,12,12,12,12];
crew=[2,2,2,2,4,4,4,1,2,2,2,3,4,2,3,6,2,2,4,2,4,5,4,4,2,2,4,5,2,4,2,2,2,2,2,2,4,5,7];
